m = 6;

n = 8;

L = [200, 100, 200, 300, 200, 100];

S = [16, 25, 21, 14, 19, 14, 6, 20];

D = [|0, 80, 131, 22, 41, 127, 87, 48, 113
|60, 0, 85, 82, 101, 81, 53, 106, 57
|141, 83, 0, 129, 182, 4, 64, 189, 28
|22, 82, 129, 0, 55, 125, 65, 66, 101
|41, 99, 172, 55, 0, 168, 118, 11, 154
|137, 81, 4, 125, 178, 0, 60, 185, 32
|77, 63, 64, 65, 118, 60, 0, 125, 36
|48, 126, 179, 60, 58, 175, 125, 0, 161
|113, 57, 28, 101, 154, 24, 36, 161, 0
|];
